c File: flat150_3_0.col
c
c SOURCE: Joseph Culberson (joe@cs.ualberta.ca)
c DESCRIPTION: Quasi-random coloring problem
c              generated with flatness = 0
c                             probability = 0.048
c                             known coloring = 3
c                             random seed = 1057
c              Creation Date:  Wed Feb 24 10:37:36 1999
c Maximum degree = 8 Minimum degree = 0
c COLOR VERIFICATION: Using the permuted order
c under simple greedy yields the specified
c coloring number
c Color = 3 specified partitions = 3
c p edge 150 360
c cnf created by edge2cnf
p cnf 450 1680
-1 -2 0
-1 -3 0
-2 -3 0
1 2 3 0
-4 -5 0
-4 -6 0
-5 -6 0
4 5 6 0
-7 -8 0
-7 -9 0
-8 -9 0
7 8 9 0
-10 -11 0
-10 -12 0
-11 -12 0
10 11 12 0
-13 -14 0
-13 -15 0
-14 -15 0
13 14 15 0
-16 -17 0
-16 -18 0
-17 -18 0
16 17 18 0
-19 -20 0
-19 -21 0
-20 -21 0
19 20 21 0
-22 -23 0
-22 -24 0
-23 -24 0
22 23 24 0
-25 -26 0
-25 -27 0
-26 -27 0
25 26 27 0
-28 -29 0
-28 -30 0
-29 -30 0
28 29 30 0
-31 -32 0
-31 -33 0
-32 -33 0
31 32 33 0
-34 -35 0
-34 -36 0
-35 -36 0
34 35 36 0
-37 -38 0
-37 -39 0
-38 -39 0
37 38 39 0
-40 -41 0
-40 -42 0
-41 -42 0
40 41 42 0
-43 -44 0
-43 -45 0
-44 -45 0
43 44 45 0
-46 -47 0
-46 -48 0
-47 -48 0
46 47 48 0
-49 -50 0
-49 -51 0
-50 -51 0
49 50 51 0
-52 -53 0
-52 -54 0
-53 -54 0
52 53 54 0
-55 -56 0
-55 -57 0
-56 -57 0
55 56 57 0
-58 -59 0
-58 -60 0
-59 -60 0
58 59 60 0
-61 -62 0
-61 -63 0
-62 -63 0
61 62 63 0
-64 -65 0
-64 -66 0
-65 -66 0
64 65 66 0
-67 -68 0
-67 -69 0
-68 -69 0
67 68 69 0
-70 -71 0
-70 -72 0
-71 -72 0
70 71 72 0
-73 -74 0
-73 -75 0
-74 -75 0
73 74 75 0
-76 -77 0
-76 -78 0
-77 -78 0
76 77 78 0
-79 -80 0
-79 -81 0
-80 -81 0
79 80 81 0
-82 -83 0
-82 -84 0
-83 -84 0
82 83 84 0
-85 -86 0
-85 -87 0
-86 -87 0
85 86 87 0
-88 -89 0
-88 -90 0
-89 -90 0
88 89 90 0
-91 -92 0
-91 -93 0
-92 -93 0
91 92 93 0
-94 -95 0
-94 -96 0
-95 -96 0
94 95 96 0
-97 -98 0
-97 -99 0
-98 -99 0
97 98 99 0
-100 -101 0
-100 -102 0
-101 -102 0
100 101 102 0
-103 -104 0
-103 -105 0
-104 -105 0
103 104 105 0
-106 -107 0
-106 -108 0
-107 -108 0
106 107 108 0
-109 -110 0
-109 -111 0
-110 -111 0
109 110 111 0
-112 -113 0
-112 -114 0
-113 -114 0
112 113 114 0
-115 -116 0
-115 -117 0
-116 -117 0
115 116 117 0
-118 -119 0
-118 -120 0
-119 -120 0
118 119 120 0
-121 -122 0
-121 -123 0
-122 -123 0
121 122 123 0
-124 -125 0
-124 -126 0
-125 -126 0
124 125 126 0
-127 -128 0
-127 -129 0
-128 -129 0
127 128 129 0
-130 -131 0
-130 -132 0
-131 -132 0
130 131 132 0
-133 -134 0
-133 -135 0
-134 -135 0
133 134 135 0
-136 -137 0
-136 -138 0
-137 -138 0
136 137 138 0
-139 -140 0
-139 -141 0
-140 -141 0
139 140 141 0
-142 -143 0
-142 -144 0
-143 -144 0
142 143 144 0
-145 -146 0
-145 -147 0
-146 -147 0
145 146 147 0
-148 -149 0
-148 -150 0
-149 -150 0
148 149 150 0
-151 -152 0
-151 -153 0
-152 -153 0
151 152 153 0
-154 -155 0
-154 -156 0
-155 -156 0
154 155 156 0
-157 -158 0
-157 -159 0
-158 -159 0
157 158 159 0
-160 -161 0
-160 -162 0
-161 -162 0
160 161 162 0
-163 -164 0
-163 -165 0
-164 -165 0
163 164 165 0
-166 -167 0
-166 -168 0
-167 -168 0
166 167 168 0
-169 -170 0
-169 -171 0
-170 -171 0
169 170 171 0
-172 -173 0
-172 -174 0
-173 -174 0
172 173 174 0
-175 -176 0
-175 -177 0
-176 -177 0
175 176 177 0
-178 -179 0
-178 -180 0
-179 -180 0
178 179 180 0
-181 -182 0
-181 -183 0
-182 -183 0
181 182 183 0
-184 -185 0
-184 -186 0
-185 -186 0
184 185 186 0
-187 -188 0
-187 -189 0
-188 -189 0
187 188 189 0
-190 -191 0
-190 -192 0
-191 -192 0
190 191 192 0
-193 -194 0
-193 -195 0
-194 -195 0
193 194 195 0
-196 -197 0
-196 -198 0
-197 -198 0
196 197 198 0
-199 -200 0
-199 -201 0
-200 -201 0
199 200 201 0
-202 -203 0
-202 -204 0
-203 -204 0
202 203 204 0
-205 -206 0
-205 -207 0
-206 -207 0
205 206 207 0
-208 -209 0
-208 -210 0
-209 -210 0
208 209 210 0
-211 -212 0
-211 -213 0
-212 -213 0
211 212 213 0
-214 -215 0
-214 -216 0
-215 -216 0
214 215 216 0
-217 -218 0
-217 -219 0
-218 -219 0
217 218 219 0
-220 -221 0
-220 -222 0
-221 -222 0
220 221 222 0
-223 -224 0
-223 -225 0
-224 -225 0
223 224 225 0
-226 -227 0
-226 -228 0
-227 -228 0
226 227 228 0
-229 -230 0
-229 -231 0
-230 -231 0
229 230 231 0
-232 -233 0
-232 -234 0
-233 -234 0
232 233 234 0
-235 -236 0
-235 -237 0
-236 -237 0
235 236 237 0
-238 -239 0
-238 -240 0
-239 -240 0
238 239 240 0
-241 -242 0
-241 -243 0
-242 -243 0
241 242 243 0
-244 -245 0
-244 -246 0
-245 -246 0
244 245 246 0
-247 -248 0
-247 -249 0
-248 -249 0
247 248 249 0
-250 -251 0
-250 -252 0
-251 -252 0
250 251 252 0
-253 -254 0
-253 -255 0
-254 -255 0
253 254 255 0
-256 -257 0
-256 -258 0
-257 -258 0
256 257 258 0
-259 -260 0
-259 -261 0
-260 -261 0
259 260 261 0
-262 -263 0
-262 -264 0
-263 -264 0
262 263 264 0
-265 -266 0
-265 -267 0
-266 -267 0
265 266 267 0
-268 -269 0
-268 -270 0
-269 -270 0
268 269 270 0
-271 -272 0
-271 -273 0
-272 -273 0
271 272 273 0
-274 -275 0
-274 -276 0
-275 -276 0
274 275 276 0
-277 -278 0
-277 -279 0
-278 -279 0
277 278 279 0
-280 -281 0
-280 -282 0
-281 -282 0
280 281 282 0
-283 -284 0
-283 -285 0
-284 -285 0
283 284 285 0
-286 -287 0
-286 -288 0
-287 -288 0
286 287 288 0
-289 -290 0
-289 -291 0
-290 -291 0
289 290 291 0
-292 -293 0
-292 -294 0
-293 -294 0
292 293 294 0
-295 -296 0
-295 -297 0
-296 -297 0
295 296 297 0
-298 -299 0
-298 -300 0
-299 -300 0
298 299 300 0
-301 -302 0
-301 -303 0
-302 -303 0
301 302 303 0
-304 -305 0
-304 -306 0
-305 -306 0
304 305 306 0
-307 -308 0
-307 -309 0
-308 -309 0
307 308 309 0
-310 -311 0
-310 -312 0
-311 -312 0
310 311 312 0
-313 -314 0
-313 -315 0
-314 -315 0
313 314 315 0
-316 -317 0
-316 -318 0
-317 -318 0
316 317 318 0
-319 -320 0
-319 -321 0
-320 -321 0
319 320 321 0
-322 -323 0
-322 -324 0
-323 -324 0
322 323 324 0
-325 -326 0
-325 -327 0
-326 -327 0
325 326 327 0
-328 -329 0
-328 -330 0
-329 -330 0
328 329 330 0
-331 -332 0
-331 -333 0
-332 -333 0
331 332 333 0
-334 -335 0
-334 -336 0
-335 -336 0
334 335 336 0
-337 -338 0
-337 -339 0
-338 -339 0
337 338 339 0
-340 -341 0
-340 -342 0
-341 -342 0
340 341 342 0
-343 -344 0
-343 -345 0
-344 -345 0
343 344 345 0
-346 -347 0
-346 -348 0
-347 -348 0
346 347 348 0
-349 -350 0
-349 -351 0
-350 -351 0
349 350 351 0
-352 -353 0
-352 -354 0
-353 -354 0
352 353 354 0
-355 -356 0
-355 -357 0
-356 -357 0
355 356 357 0
-358 -359 0
-358 -360 0
-359 -360 0
358 359 360 0
-361 -362 0
-361 -363 0
-362 -363 0
361 362 363 0
-364 -365 0
-364 -366 0
-365 -366 0
364 365 366 0
-367 -368 0
-367 -369 0
-368 -369 0
367 368 369 0
-370 -371 0
-370 -372 0
-371 -372 0
370 371 372 0
-373 -374 0
-373 -375 0
-374 -375 0
373 374 375 0
-376 -377 0
-376 -378 0
-377 -378 0
376 377 378 0
-379 -380 0
-379 -381 0
-380 -381 0
379 380 381 0
-382 -383 0
-382 -384 0
-383 -384 0
382 383 384 0
-385 -386 0
-385 -387 0
-386 -387 0
385 386 387 0
-388 -389 0
-388 -390 0
-389 -390 0
388 389 390 0
-391 -392 0
-391 -393 0
-392 -393 0
391 392 393 0
-394 -395 0
-394 -396 0
-395 -396 0
394 395 396 0
-397 -398 0
-397 -399 0
-398 -399 0
397 398 399 0
-400 -401 0
-400 -402 0
-401 -402 0
400 401 402 0
-403 -404 0
-403 -405 0
-404 -405 0
403 404 405 0
-406 -407 0
-406 -408 0
-407 -408 0
406 407 408 0
-409 -410 0
-409 -411 0
-410 -411 0
409 410 411 0
-412 -413 0
-412 -414 0
-413 -414 0
412 413 414 0
-415 -416 0
-415 -417 0
-416 -417 0
415 416 417 0
-418 -419 0
-418 -420 0
-419 -420 0
418 419 420 0
-421 -422 0
-421 -423 0
-422 -423 0
421 422 423 0
-424 -425 0
-424 -426 0
-425 -426 0
424 425 426 0
-427 -428 0
-427 -429 0
-428 -429 0
427 428 429 0
-430 -431 0
-430 -432 0
-431 -432 0
430 431 432 0
-433 -434 0
-433 -435 0
-434 -435 0
433 434 435 0
-436 -437 0
-436 -438 0
-437 -438 0
436 437 438 0
-439 -440 0
-439 -441 0
-440 -441 0
439 440 441 0
-442 -443 0
-442 -444 0
-443 -444 0
442 443 444 0
-445 -446 0
-445 -447 0
-446 -447 0
445 446 447 0
-448 -449 0
-448 -450 0
-449 -450 0
448 449 450 0
-19 -1 0
-20 -2 0
-21 -3 0
-28 -1 0
-29 -2 0
-30 -3 0
-160 -1 0
-161 -2 0
-162 -3 0
-169 -1 0
-170 -2 0
-171 -3 0
-181 -1 0
-182 -2 0
-183 -3 0
-271 -1 0
-272 -2 0
-273 -3 0
-46 -4 0
-47 -5 0
-48 -6 0
-76 -4 0
-77 -5 0
-78 -6 0
-349 -4 0
-350 -5 0
-351 -6 0
-124 -7 0
-125 -8 0
-126 -9 0
-130 -7 0
-131 -8 0
-132 -9 0
-22 -10 0
-23 -11 0
-24 -12 0
-412 -10 0
-413 -11 0
-414 -12 0
-448 -10 0
-449 -11 0
-450 -12 0
-241 -13 0
-242 -14 0
-243 -15 0
-247 -13 0
-248 -14 0
-249 -15 0
-325 -13 0
-326 -14 0
-327 -15 0
-367 -13 0
-368 -14 0
-369 -15 0
-106 -16 0
-107 -17 0
-108 -18 0
-70 -19 0
-71 -20 0
-72 -21 0
-76 -19 0
-77 -20 0
-78 -21 0
-106 -19 0
-107 -20 0
-108 -21 0
-295 -19 0
-296 -20 0
-297 -21 0
-298 -19 0
-299 -20 0
-300 -21 0
-304 -19 0
-305 -20 0
-306 -21 0
-409 -19 0
-410 -20 0
-411 -21 0
-226 -22 0
-227 -23 0
-228 -24 0
-337 -22 0
-338 -23 0
-339 -24 0
-169 -25 0
-170 -26 0
-171 -27 0
-184 -25 0
-185 -26 0
-186 -27 0
-283 -25 0
-284 -26 0
-285 -27 0
-343 -25 0
-344 -26 0
-345 -27 0
-43 -28 0
-44 -29 0
-45 -30 0
-115 -28 0
-116 -29 0
-117 -30 0
-262 -28 0
-263 -29 0
-264 -30 0
-103 -31 0
-104 -32 0
-105 -33 0
-238 -31 0
-239 -32 0
-240 -33 0
-265 -31 0
-266 -32 0
-267 -33 0
-319 -31 0
-320 -32 0
-321 -33 0
-355 -34 0
-356 -35 0
-357 -36 0
-148 -37 0
-149 -38 0
-150 -39 0
-175 -37 0
-176 -38 0
-177 -39 0
-409 -37 0
-410 -38 0
-411 -39 0
-118 -40 0
-119 -41 0
-120 -42 0
-136 -40 0
-137 -41 0
-138 -42 0
-145 -40 0
-146 -41 0
-147 -42 0
-202 -40 0
-203 -41 0
-204 -42 0
-238 -40 0
-239 -41 0
-240 -42 0
-322 -40 0
-323 -41 0
-324 -42 0
-358 -40 0
-359 -41 0
-360 -42 0
-442 -40 0
-443 -41 0
-444 -42 0
-118 -43 0
-119 -44 0
-120 -45 0
-169 -43 0
-170 -44 0
-171 -45 0
-175 -43 0
-176 -44 0
-177 -45 0
-313 -43 0
-314 -44 0
-315 -45 0
-334 -43 0
-335 -44 0
-336 -45 0
-418 -43 0
-419 -44 0
-420 -45 0
-79 -46 0
-80 -47 0
-81 -48 0
-124 -46 0
-125 -47 0
-126 -48 0
-229 -46 0
-230 -47 0
-231 -48 0
-376 -46 0
-377 -47 0
-378 -48 0
-427 -46 0
-428 -47 0
-429 -48 0
-118 -49 0
-119 -50 0
-120 -51 0
-208 -49 0
-209 -50 0
-210 -51 0
-217 -49 0
-218 -50 0
-219 -51 0
-250 -49 0
-251 -50 0
-252 -51 0
-94 -52 0
-95 -53 0
-96 -54 0
-187 -52 0
-188 -53 0
-189 -54 0
-190 -52 0
-191 -53 0
-192 -54 0
-109 -55 0
-110 -56 0
-111 -57 0
-121 -55 0
-122 -56 0
-123 -57 0
-379 -55 0
-380 -56 0
-381 -57 0
-397 -55 0
-398 -56 0
-399 -57 0
-436 -55 0
-437 -56 0
-438 -57 0
-310 -58 0
-311 -59 0
-312 -60 0
-94 -61 0
-95 -62 0
-96 -63 0
-100 -61 0
-101 -62 0
-102 -63 0
-199 -61 0
-200 -62 0
-201 -63 0
-211 -61 0
-212 -62 0
-213 -63 0
-373 -61 0
-374 -62 0
-375 -63 0
-148 -64 0
-149 -65 0
-150 -66 0
-202 -64 0
-203 -65 0
-204 -66 0
-229 -64 0
-230 -65 0
-231 -66 0
-262 -64 0
-263 -65 0
-264 -66 0
-319 -64 0
-320 -65 0
-321 -66 0
-109 -67 0
-110 -68 0
-111 -69 0
-151 -67 0
-152 -68 0
-153 -69 0
-295 -67 0
-296 -68 0
-297 -69 0
-313 -67 0
-314 -68 0
-315 -69 0
-355 -67 0
-356 -68 0
-357 -69 0
-76 -70 0
-77 -71 0
-78 -72 0
-259 -70 0
-260 -71 0
-261 -72 0
-271 -70 0
-272 -71 0
-273 -72 0
-133 -73 0
-134 -74 0
-135 -75 0
-214 -73 0
-215 -74 0
-216 -75 0
-247 -73 0
-248 -74 0
-249 -75 0
-301 -73 0
-302 -74 0
-303 -75 0
-313 -73 0
-314 -74 0
-315 -75 0
-442 -73 0
-443 -74 0
-444 -75 0
-121 -76 0
-122 -77 0
-123 -78 0
-154 -76 0
-155 -77 0
-156 -78 0
-160 -76 0
-161 -77 0
-162 -78 0
-178 -76 0
-179 -77 0
-180 -78 0
-373 -76 0
-374 -77 0
-375 -78 0
-142 -79 0
-143 -80 0
-144 -81 0
-190 -79 0
-191 -80 0
-192 -81 0
-223 -79 0
-224 -80 0
-225 -81 0
-400 -79 0
-401 -80 0
-402 -81 0
-403 -79 0
-404 -80 0
-405 -81 0
-214 -82 0
-215 -83 0
-216 -84 0
-235 -82 0
-236 -83 0
-237 -84 0
-355 -82 0
-356 -83 0
-357 -84 0
-391 -82 0
-392 -83 0
-393 -84 0
-445 -82 0
-446 -83 0
-447 -84 0
-106 -85 0
-107 -86 0
-108 -87 0
-232 -85 0
-233 -86 0
-234 -87 0
-277 -85 0
-278 -86 0
-279 -87 0
-430 -85 0
-431 -86 0
-432 -87 0
-112 -88 0
-113 -89 0
-114 -90 0
-289 -88 0
-290 -89 0
-291 -90 0
-340 -88 0
-341 -89 0
-342 -90 0
-388 -88 0
-389 -89 0
-390 -90 0
-121 -91 0
-122 -92 0
-123 -93 0
-151 -91 0
-152 -92 0
-153 -93 0
-253 -91 0
-254 -92 0
-255 -93 0
-370 -91 0
-371 -92 0
-372 -93 0
-184 -94 0
-185 -95 0
-186 -96 0
-220 -94 0
-221 -95 0
-222 -96 0
-301 -94 0
-302 -95 0
-303 -96 0
-166 -97 0
-167 -98 0
-168 -99 0
-307 -97 0
-308 -98 0
-309 -99 0
-433 -97 0
-434 -98 0
-435 -99 0
-142 -100 0
-143 -101 0
-144 -102 0
-148 -100 0
-149 -101 0
-150 -102 0
-172 -100 0
-173 -101 0
-174 -102 0
-325 -100 0
-326 -101 0
-327 -102 0
-391 -100 0
-392 -101 0
-393 -102 0
-430 -100 0
-431 -101 0
-432 -102 0
-157 -103 0
-158 -104 0
-159 -105 0
-199 -103 0
-200 -104 0
-201 -105 0
-181 -106 0
-182 -107 0
-183 -108 0
-190 -106 0
-191 -107 0
-192 -108 0
-283 -106 0
-284 -107 0
-285 -108 0
-379 -106 0
-380 -107 0
-381 -108 0
-418 -106 0
-419 -107 0
-420 -108 0
-127 -109 0
-128 -110 0
-129 -111 0
-274 -109 0
-275 -110 0
-276 -111 0
-145 -112 0
-146 -113 0
-147 -114 0
-229 -112 0
-230 -113 0
-231 -114 0
-253 -112 0
-254 -113 0
-255 -114 0
-280 -112 0
-281 -113 0
-282 -114 0
-307 -112 0
-308 -113 0
-309 -114 0
-409 -112 0
-410 -113 0
-411 -114 0
-448 -112 0
-449 -113 0
-450 -114 0
-199 -115 0
-200 -116 0
-201 -117 0
-394 -115 0
-395 -116 0
-396 -117 0
-403 -115 0
-404 -116 0
-405 -117 0
-415 -115 0
-416 -116 0
-417 -117 0
-328 -118 0
-329 -119 0
-330 -120 0
-361 -118 0
-362 -119 0
-363 -120 0
-388 -118 0
-389 -119 0
-390 -120 0
-406 -118 0
-407 -119 0
-408 -120 0
-439 -118 0
-440 -119 0
-441 -120 0
-190 -121 0
-191 -122 0
-192 -123 0
-331 -121 0
-332 -122 0
-333 -123 0
-358 -121 0
-359 -122 0
-360 -123 0
-157 -124 0
-158 -125 0
-159 -126 0
-250 -124 0
-251 -125 0
-252 -126 0
-388 -124 0
-389 -125 0
-390 -126 0
-409 -124 0
-410 -125 0
-411 -126 0
-265 -127 0
-266 -128 0
-267 -129 0
-289 -127 0
-290 -128 0
-291 -129 0
-412 -127 0
-413 -128 0
-414 -129 0
-424 -127 0
-425 -128 0
-426 -129 0
-169 -130 0
-170 -131 0
-171 -132 0
-178 -130 0
-179 -131 0
-180 -132 0
-211 -130 0
-212 -131 0
-213 -132 0
-361 -130 0
-362 -131 0
-363 -132 0
-244 -133 0
-245 -134 0
-246 -135 0
-304 -133 0
-305 -134 0
-306 -135 0
-358 -133 0
-359 -134 0
-360 -135 0
-436 -133 0
-437 -134 0
-438 -135 0
-439 -133 0
-440 -134 0
-441 -135 0
-145 -136 0
-146 -137 0
-147 -138 0
-160 -136 0
-161 -137 0
-162 -138 0
-406 -136 0
-407 -137 0
-408 -138 0
-229 -139 0
-230 -140 0
-231 -141 0
-274 -139 0
-275 -140 0
-276 -141 0
-286 -139 0
-287 -140 0
-288 -141 0
-292 -139 0
-293 -140 0
-294 -141 0
-373 -142 0
-374 -143 0
-375 -144 0
-379 -142 0
-380 -143 0
-381 -144 0
-409 -142 0
-410 -143 0
-411 -144 0
-445 -142 0
-446 -143 0
-447 -144 0
-220 -145 0
-221 -146 0
-222 -147 0
-412 -145 0
-413 -146 0
-414 -147 0
-154 -148 0
-155 -149 0
-156 -150 0
-283 -148 0
-284 -149 0
-285 -150 0
-376 -148 0
-377 -149 0
-378 -150 0
-418 -148 0
-419 -149 0
-420 -150 0
-250 -151 0
-251 -152 0
-252 -153 0
-253 -151 0
-254 -152 0
-255 -153 0
-391 -151 0
-392 -152 0
-393 -153 0
-328 -154 0
-329 -155 0
-330 -156 0
-340 -154 0
-341 -155 0
-342 -156 0
-361 -154 0
-362 -155 0
-363 -156 0
-256 -157 0
-257 -158 0
-258 -159 0
-304 -157 0
-305 -158 0
-306 -159 0
-343 -157 0
-344 -158 0
-345 -159 0
-355 -157 0
-356 -158 0
-357 -159 0
-175 -160 0
-176 -161 0
-177 -162 0
-187 -160 0
-188 -161 0
-189 -162 0
-211 -160 0
-212 -161 0
-213 -162 0
-238 -160 0
-239 -161 0
-240 -162 0
-250 -160 0
-251 -161 0
-252 -162 0
-223 -163 0
-224 -164 0
-225 -165 0
-256 -163 0
-257 -164 0
-258 -165 0
-379 -163 0
-380 -164 0
-381 -165 0
-394 -163 0
-395 -164 0
-396 -165 0
-427 -163 0
-428 -164 0
-429 -165 0
-439 -163 0
-440 -164 0
-441 -165 0
-259 -166 0
-260 -167 0
-261 -168 0
-304 -166 0
-305 -167 0
-306 -168 0
-385 -166 0
-386 -167 0
-387 -168 0
-190 -169 0
-191 -170 0
-192 -171 0
-373 -169 0
-374 -170 0
-375 -171 0
-298 -172 0
-299 -173 0
-300 -174 0
-364 -172 0
-365 -173 0
-366 -174 0
-388 -172 0
-389 -173 0
-390 -174 0
-400 -172 0
-401 -173 0
-402 -174 0
-265 -175 0
-266 -176 0
-267 -177 0
-268 -175 0
-269 -176 0
-270 -177 0
-313 -175 0
-314 -176 0
-315 -177 0
-442 -175 0
-443 -176 0
-444 -177 0
-283 -178 0
-284 -179 0
-285 -180 0
-205 -181 0
-206 -182 0
-207 -183 0
-274 -181 0
-275 -182 0
-276 -183 0
-298 -181 0
-299 -182 0
-300 -183 0
-448 -181 0
-449 -182 0
-450 -183 0
-187 -184 0
-188 -185 0
-189 -186 0
-271 -184 0
-272 -185 0
-273 -186 0
-208 -187 0
-209 -188 0
-210 -189 0
-316 -187 0
-317 -188 0
-318 -189 0
-379 -187 0
-380 -188 0
-381 -189 0
-343 -190 0
-344 -191 0
-345 -192 0
-367 -190 0
-368 -191 0
-369 -192 0
-340 -193 0
-341 -194 0
-342 -195 0
-391 -193 0
-392 -194 0
-393 -195 0
-205 -196 0
-206 -197 0
-207 -198 0
-328 -196 0
-329 -197 0
-330 -198 0
-343 -196 0
-344 -197 0
-345 -198 0
-418 -196 0
-419 -197 0
-420 -198 0
-445 -196 0
-446 -197 0
-447 -198 0
-274 -199 0
-275 -200 0
-276 -201 0
-286 -199 0
-287 -200 0
-288 -201 0
-331 -199 0
-332 -200 0
-333 -201 0
-367 -199 0
-368 -200 0
-369 -201 0
-376 -199 0
-377 -200 0
-378 -201 0
-214 -202 0
-215 -203 0
-216 -204 0
-217 -205 0
-218 -206 0
-219 -207 0
-235 -205 0
-236 -206 0
-237 -207 0
-355 -205 0
-356 -206 0
-357 -207 0
-364 -205 0
-365 -206 0
-366 -207 0
-373 -205 0
-374 -206 0
-375 -207 0
-289 -208 0
-290 -209 0
-291 -210 0
-325 -208 0
-326 -209 0
-327 -210 0
-367 -208 0
-368 -209 0
-369 -210 0
-418 -208 0
-419 -209 0
-420 -210 0
-394 -211 0
-395 -212 0
-396 -213 0
-223 -217 0
-224 -218 0
-225 -219 0
-226 -217 0
-227 -218 0
-228 -219 0
-268 -217 0
-269 -218 0
-270 -219 0
-421 -217 0
-422 -218 0
-423 -219 0
-427 -217 0
-428 -218 0
-429 -219 0
-265 -223 0
-266 -224 0
-267 -225 0
-400 -223 0
-401 -224 0
-402 -225 0
-235 -226 0
-236 -227 0
-237 -228 0
-250 -226 0
-251 -227 0
-252 -228 0
-358 -226 0
-359 -227 0
-360 -228 0
-262 -229 0
-263 -230 0
-264 -231 0
-295 -229 0
-296 -230 0
-297 -231 0
-262 -232 0
-263 -233 0
-264 -234 0
-295 -232 0
-296 -233 0
-297 -234 0
-370 -235 0
-371 -236 0
-372 -237 0
-400 -235 0
-401 -236 0
-402 -237 0
-304 -238 0
-305 -239 0
-306 -240 0
-370 -238 0
-371 -239 0
-372 -240 0
-319 -241 0
-320 -242 0
-321 -243 0
-325 -241 0
-326 -242 0
-327 -243 0
-328 -241 0
-329 -242 0
-330 -243 0
-334 -241 0
-335 -242 0
-336 -243 0
-355 -244 0
-356 -245 0
-357 -246 0
-358 -244 0
-359 -245 0
-360 -246 0
-256 -247 0
-257 -248 0
-258 -249 0
-298 -247 0
-299 -248 0
-300 -249 0
-328 -247 0
-329 -248 0
-330 -249 0
-442 -247 0
-443 -248 0
-444 -249 0
-436 -253 0
-437 -254 0
-438 -255 0
-307 -256 0
-308 -257 0
-309 -258 0
-394 -256 0
-395 -257 0
-396 -258 0
-433 -256 0
-434 -257 0
-435 -258 0
-448 -256 0
-449 -257 0
-450 -258 0
-436 -259 0
-437 -260 0
-438 -261 0
-379 -262 0
-380 -263 0
-381 -264 0
-388 -262 0
-389 -263 0
-390 -264 0
-325 -265 0
-326 -266 0
-327 -267 0
-394 -265 0
-395 -266 0
-396 -267 0
-403 -265 0
-404 -266 0
-405 -267 0
-406 -265 0
-407 -266 0
-408 -267 0
-307 -268 0
-308 -269 0
-309 -270 0
-313 -268 0
-314 -269 0
-315 -270 0
-418 -268 0
-419 -269 0
-420 -270 0
-328 -271 0
-329 -272 0
-330 -273 0
-430 -271 0
-431 -272 0
-432 -273 0
-295 -277 0
-296 -278 0
-297 -279 0
-316 -277 0
-317 -278 0
-318 -279 0
-319 -277 0
-320 -278 0
-321 -279 0
-325 -277 0
-326 -278 0
-327 -279 0
-397 -280 0
-398 -281 0
-399 -282 0
-427 -283 0
-428 -284 0
-429 -285 0
-295 -286 0
-296 -287 0
-297 -288 0
-364 -286 0
-365 -287 0
-366 -288 0
-400 -289 0
-401 -290 0
-402 -291 0
-334 -292 0
-335 -293 0
-336 -294 0
-376 -292 0
-377 -293 0
-378 -294 0
-388 -292 0
-389 -293 0
-390 -294 0
-439 -292 0
-440 -293 0
-441 -294 0
-322 -295 0
-323 -296 0
-324 -297 0
-331 -295 0
-332 -296 0
-333 -297 0
-370 -301 0
-371 -302 0
-372 -303 0
-376 -304 0
-377 -305 0
-378 -306 0
-328 -307 0
-329 -308 0
-330 -309 0
-415 -307 0
-416 -308 0
-417 -309 0
-388 -310 0
-389 -311 0
-390 -312 0
-331 -313 0
-332 -314 0
-333 -315 0
-424 -313 0
-425 -314 0
-426 -315 0
-403 -316 0
-404 -317 0
-405 -318 0
-427 -316 0
-428 -317 0
-429 -318 0
-436 -316 0
-437 -317 0
-438 -318 0
-418 -322 0
-419 -323 0
-420 -324 0
-448 -322 0
-449 -323 0
-450 -324 0
-376 -325 0
-377 -326 0
-378 -327 0
-418 -325 0
-419 -326 0
-420 -327 0
-397 -328 0
-398 -329 0
-399 -330 0
-370 -337 0
-371 -338 0
-372 -339 0
-448 -337 0
-449 -338 0
-450 -339 0
-406 -340 0
-407 -341 0
-408 -342 0
-433 -343 0
-434 -344 0
-435 -345 0
-352 -346 0
-353 -347 0
-354 -348 0
-361 -346 0
-362 -347 0
-363 -348 0
-352 -349 0
-353 -350 0
-354 -351 0
-391 -349 0
-392 -350 0
-393 -351 0
-424 -349 0
-425 -350 0
-426 -351 0
-376 -364 0
-377 -365 0
-378 -366 0
-412 -364 0
-413 -365 0
-414 -366 0
-388 -370 0
-389 -371 0
-390 -372 0
-445 -394 0
-446 -395 0
-447 -396 0
-406 -403 0
-407 -404 0
-408 -405 0
-409 -406 0
-410 -407 0
-411 -408 0
-445 -436 0
-446 -437 0
-447 -438 0
